NAME: instance_2368
TYPE: TSP
DIMENSION: 20
EDGE_WEIGHT_TYPE: EUC_2D
NODE_COORD_SECTION
0 86.42 91.96
1 62.62 66.40
2 95.92 93.34
3 82.16 73.26
4 41.54 45.87
5 68.98 79.77
6 78.91 39.44
7 98.24 48.33
8 16.97 83.29
9 86.70 86.04
10 35.19 97.32
11 89.81 78.48
12 25.77 33.89
13 72.22 87.29
14 46.33 39.67
15 44.45 90.34
16 35.24 22.92
17 51.48 76.33
18 94.79 25.16
19 49.91 68.69
EOF
